rcpsp/heur_output_bi_constraints/Log=1/heurj90.txt
encoding rcpsp/j90.sm/j9035_5.sm nv: 513252 nc: 1236803 enctime: 16.67
encoding rcpsp/j90.sm/j9035_5.sm nv: 86814 nc: 206021 enctime: 0.96
c File: j9035_5.smnaivebi1.wcnf
c optimal
c final solution cost: 63
c CPU time: 4.243911
s OPTIMUM FOUND

c File: j9035_5.smbi1.wcnf
c optimal
c final solution cost: 63
c CPU time: 0.300700
s OPTIMUM FOUND


rcpsp/heur_output_bi_constraints/Log=1/heurj90.txt
encoding rcpsp/j90.sm/j9035_6.sm nv: 501228 nc: 1154887 enctime: 13.58
encoding rcpsp/j90.sm/j9035_6.sm nv: 74763 nc: 169522 enctime: 1.22
c File: j9035_6.smnaivebi1.wcnf
c optimal
c final solution cost: 56
c CPU time: 2.953844
s OPTIMUM FOUND

c File: j9035_6.smbi1.wcnf
c optimal
c final solution cost: 56
c CPU time: 0.225296
s OPTIMUM FOUND


rcpsp/heur_output_bi_constraints/Log=1/heurj90.txt
encoding rcpsp/j90.sm/j9035_7.sm nv: 434250 nc: 1001943 enctime: 12.07
encoding rcpsp/j90.sm/j9035_7.sm nv: 73340 nc: 166801 enctime: 1.18
c File: j9035_7.smnaivebi1.wcnf
c optimal
c final solution cost: 67
c CPU time: 2.840058
s OPTIMUM FOUND

c File: j9035_7.smbi1.wcnf
c optimal
c final solution cost: 67
c CPU time: 0.361266
s OPTIMUM FOUND


rcpsp/heur_output_bi_constraints/Log=1/heurj90.txt
encoding rcpsp/j90.sm/j9035_8.sm nv: 493136 nc: 1135952 enctime: 13.43
encoding rcpsp/j90.sm/j9035_8.sm nv: 71484 nc: 162001 enctime: 1.21
c File: j9035_8.smnaivebi1.wcnf
c optimal
c final solution cost: 64
c CPU time: 3.577921
s OPTIMUM FOUND

c File: j9035_8.smbi1.wcnf
c optimal
c final solution cost: 64
c CPU time: 0.223231
s OPTIMUM FOUND


rcpsp/heur_output_bi_constraints/Log=1/heurj90.txt
encoding rcpsp/j90.sm/j9035_9.sm nv: 476844 nc: 1095917 enctime: 13.21
encoding rcpsp/j90.sm/j9035_9.sm nv: 77462 nc: 175274 enctime: 1.25
c File: j9035_9.smnaivebi1.wcnf
c optimal
c final solution cost: 62
c CPU time: 3.313408
s OPTIMUM FOUND

c File: j9035_9.smbi1.wcnf
c optimal
c final solution cost: 62
c CPU time: 0.251417
s OPTIMUM FOUND


rcpsp/heur_output_bi_constraints/Log=1/heurj90.txt
encoding rcpsp/j90.sm/j903_5.sm nv: 687659 nc: 1518119 enctime: 15.22
encoding rcpsp/j90.sm/j903_5.sm nv: 86464 nc: 188014 enctime: 0.86
c File: j903_5.smnaivebi1.wcnf
c optimal
c final solution cost: 48
c CPU time: 3.134212
s OPTIMUM FOUND

c File: j903_5.smbi1.wcnf
c optimal
c final solution cost: 48
c CPU time: 0.234801
s OPTIMUM FOUND


rcpsp/heur_output_bi_constraints/Log=1/heurj90.txt
encoding rcpsp/j90.sm/j9036_10.sm nv: 594868 nc: 1360413 enctime: 16.16
encoding rcpsp/j90.sm/j9036_10.sm nv: 110074 nc: 248823 enctime: 1.71
c File: j9036_10.smnaivebi1.wcnf
c optimal
c final solution cost: 77
c CPU time: 3.333436
s OPTIMUM FOUND

c File: j9036_10.smbi1.wcnf
c optimal
c final solution cost: 77
c CPU time: 0.287184
s OPTIMUM FOUND


rcpsp/heur_output_bi_constraints/Log=1/heurj90.txt
encoding rcpsp/j90.sm/j9036_1.sm nv: 493188 nc: 1105828 enctime: 12.17
encoding rcpsp/j90.sm/j9036_1.sm nv: 91206 nc: 202261 enctime: 1.35
c File: j9036_1.smnaivebi1.wcnf
c optimal
c final solution cost: 61
c CPU time: 3.131435
s OPTIMUM FOUND

c File: j9036_1.smbi1.wcnf
c optimal
c final solution cost: 61
c CPU time: 0.520199
s OPTIMUM FOUND


rcpsp/heur_output_bi_constraints/Log=1/heurj90.txt
encoding rcpsp/j90.sm/j9036_2.sm nv: 529830 nc: 1252083 enctime: 16.07
encoding rcpsp/j90.sm/j9036_2.sm nv: 104545 nc: 243969 enctime: 1.74
c File: j9036_2.smnaivebi1.wcnf
c optimal
c final solution cost: 83
c CPU time: 3.598357
s OPTIMUM FOUND

c File: j9036_2.smbi1.wcnf
c optimal
c final solution cost: 83
c CPU time: 0.332645
s OPTIMUM FOUND


rcpsp/heur_output_bi_constraints/Log=1/heurj90.txt
encoding rcpsp/j90.sm/j9036_3.sm nv: 656370 nc: 1479977 enctime: 17.27
encoding rcpsp/j90.sm/j9036_3.sm nv: 122265 nc: 272742 enctime: 1.84
c File: j9036_3.smnaivebi1.wcnf
c optimal
c final solution cost: 69
c CPU time: 4.009136
s OPTIMUM FOUND

c File: j9036_3.smbi1.wcnf
c optimal
c final solution cost: 69
c CPU time: 0.330702
s OPTIMUM FOUND


rcpsp/heur_output_bi_constraints/Log=1/heurj90.txt
encoding rcpsp/j90.sm/j9036_4.sm nv: 548948 nc: 1230802 enctime: 13.77
encoding rcpsp/j90.sm/j9036_4.sm nv: 104842 nc: 232506 enctime: 1.54
c File: j9036_4.smnaivebi1.wcnf
c optimal
c final solution cost: 58
c CPU time: 2.801642
s OPTIMUM FOUND

c File: j9036_4.smbi1.wcnf
c optimal
c final solution cost: 58
c CPU time: 0.272502
s OPTIMUM FOUND


rcpsp/heur_output_bi_constraints/Log=1/heurj90.txt
encoding rcpsp/j90.sm/j9036_5.sm nv: 590336 nc: 1355796 enctime: 16.23
encoding rcpsp/j90.sm/j9036_5.sm nv: 108382 nc: 246006 enctime: 1.17
c File: j9036_5.smnaivebi1.wcnf
c optimal
c final solution cost: 71
c CPU time: 5.250444
s OPTIMUM FOUND

c File: j9036_5.smbi1.wcnf
c optimal
c final solution cost: 71
c CPU time: 0.313262
s OPTIMUM FOUND


rcpsp/heur_output_bi_constraints/Log=1/heurj90.txt
encoding rcpsp/j90.sm/j9036_6.sm nv: 623570 nc: 1390994 enctime: 15.73
encoding rcpsp/j90.sm/j9036_6.sm nv: 93980 nc: 206714 enctime: 0.96
c File: j9036_6.smnaivebi1.wcnf
c optimal
c final solution cost: 62
c CPU time: 4.452360
s OPTIMUM FOUND

c File: j9036_6.smbi1.wcnf
c optimal
c final solution cost: 62
c CPU time: 0.276846
s OPTIMUM FOUND


rcpsp/heur_output_bi_constraints/Log=1/heurj90.txt
encoding rcpsp/j90.sm/j9036_7.sm nv: 571206 nc: 1307674 enctime: 15.08
encoding rcpsp/j90.sm/j9036_7.sm nv: 91760 nc: 207080 enctime: 1.39
c File: j9036_7.smnaivebi1.wcnf
c optimal
c final solution cost: 74
c CPU time: 2.991826
s OPTIMUM FOUND

c File: j9036_7.smbi1.wcnf
c optimal
c final solution cost: 74
c CPU time: 0.222115
s OPTIMUM FOUND


rcpsp/heur_output_bi_constraints/Log=1/heurj90.txt
encoding rcpsp/j90.sm/j9036_8.sm nv: 606528 nc: 1351242 enctime: 14.62
encoding rcpsp/j90.sm/j9036_8.sm nv: 86832 nc: 190748 enctime: 1.31
c File: j9036_8.smnaivebi1.wcnf
c optimal
c final solution cost: 54
c CPU time: 3.018038
s OPTIMUM FOUND

c File: j9036_8.smbi1.wcnf
c optimal
c final solution cost: 54
c CPU time: 0.198687
s OPTIMUM FOUND


rcpsp/heur_output_bi_constraints/Log=1/heurj90.txt
encoding rcpsp/j90.sm/j9036_9.sm nv: 633920 nc: 1481542 enctime: 18.12
encoding rcpsp/j90.sm/j9036_9.sm nv: 93956 nc: 216061 enctime: 1.00
c File: j9036_9.smnaivebi1.wcnf
c optimal
c final solution cost: 68
c CPU time: 4.624293
s OPTIMUM FOUND

c File: j9036_9.smbi1.wcnf
c optimal
c final solution cost: 68
c CPU time: 0.279532
s OPTIMUM FOUND


rcpsp/heur_output_bi_constraints/Log=1/heurj90.txt
encoding rcpsp/j90.sm/j903_6.sm nv: 502320 nc: 1117466 enctime: 10.65
encoding rcpsp/j90.sm/j903_6.sm nv: 58968 nc: 128856 enctime: 0.56
c File: j903_6.smnaivebi1.wcnf
c optimal
c final solution cost: 40
c CPU time: 2.850285
s OPTIMUM FOUND

c File: j903_6.smbi1.wcnf
c optimal
c final solution cost: 40
c CPU time: 0.189234
s OPTIMUM FOUND


rcpsp/heur_output_bi_constraints/Log=1/heurj90.txt
encoding rcpsp/j90.sm/j9037_10.sm nv: 902272 nc: 2010307 enctime: 20.55
encoding rcpsp/j90.sm/j9037_10.sm nv: 301888 nc: 670063 enctime: 4.16
c File: j9037_10.smnaivebi1.wcnf
c timeout
c final solution cost: 114
c CPU time: 63.340347
s UNKNOWN

c File: j9037_10.smbi1.wcnf
c timeout
c final solution cost: 109
c CPU time: 60.660576
s UNKNOWN


rcpsp/heur_output_bi_constraints/Log=1/heurj90.txt
encoding rcpsp/j90.sm/j9037_1.sm nv: 980720 nc: 2153189 enctime: 20.97
encoding rcpsp/j90.sm/j9037_1.sm nv: 292330 nc: 639169 enctime: 4.47
c File: j9037_1.smnaivebi1.wcnf
c timeout
c final solution cost: 101
c CPU time: 63.385690
s UNKNOWN

c File: j9037_1.smbi1.wcnf
c timeout
c final solution cost: 98
c CPU time: 60.591794
s UNKNOWN


rcpsp/heur_output_bi_constraints/Log=1/heurj90.txt
encoding rcpsp/j90.sm/j9037_2.sm nv: 890500 nc: 1955407 enctime: 19.14
encoding rcpsp/j90.sm/j9037_2.sm nv: 297427 nc: 650713 enctime: 4.55
c File: j9037_2.smnaivebi1.wcnf
c timeout
c final solution cost: 105
c CPU time: 63.134774
s UNKNOWN

c File: j9037_2.smbi1.wcnf
c timeout
c final solution cost: 105
c CPU time: 60.628462
s UNKNOWN


rcpsp/heur_output_bi_constraints/Log=1/heurj90.txt
encoding rcpsp/j90.sm/j9037_3.sm nv: 779475 nc: 1718123 enctime: 16.67
encoding rcpsp/j90.sm/j9037_3.sm nv: 260919 nc: 572939 enctime: 3.44
c File: j9037_3.smnaivebi1.wcnf
c timeout
c final solution cost: 109
c CPU time: 62.800698
s UNKNOWN

c File: j9037_3.smbi1.wcnf
c timeout
c final solution cost: 114
c CPU time: 60.547574
s UNKNOWN


rcpsp/heur_output_bi_constraints/Log=1/heurj90.txt
encoding rcpsp/j90.sm/j9037_4.sm nv: 845894 nc: 1883358 enctime: 19.21
encoding rcpsp/j90.sm/j9037_4.sm nv: 256381 nc: 568235 enctime: 4.10
c File: j9037_4.smnaivebi1.wcnf
c timeout
c final solution cost: 116
c CPU time: 63.200379
s UNKNOWN

c File: j9037_4.smbi1.wcnf
c timeout
c final solution cost: 115
c CPU time: 60.546637
s UNKNOWN


rcpsp/heur_output_bi_constraints/Log=1/heurj90.txt
encoding rcpsp/j90.sm/j9037_5.sm nv: 771210 nc: 1717681 enctime: 17.65
encoding rcpsp/j90.sm/j9037_5.sm nv: 264860 nc: 587656 enctime: 4.26
c File: j9037_5.smnaivebi1.wcnf
c timeout
c final solution cost: 118
c CPU time: 62.978334
s UNKNOWN

c File: j9037_5.smbi1.wcnf
c timeout
c final solution cost: 114
c CPU time: 60.589761
s UNKNOWN


rcpsp/heur_output_bi_constraints/Log=1/heurj90.txt
encoding rcpsp/j90.sm/j9037_6.sm nv: 952590 nc: 2137593 enctime: 22.48
encoding rcpsp/j90.sm/j9037_6.sm nv: 308490 nc: 689413 enctime: 4.29
c File: j9037_6.smnaivebi1.wcnf
c timeout
c final solution cost: 115
c CPU time: 63.954685
s UNKNOWN

c File: j9037_6.smbi1.wcnf
c timeout
c final solution cost: 117
c CPU time: 60.679854
s UNKNOWN


rcpsp/heur_output_bi_constraints/Log=1/heurj90.txt
encoding rcpsp/j90.sm/j9037_7.sm nv: 793638 nc: 1753090 enctime: 17.43
encoding rcpsp/j90.sm/j9037_7.sm nv: 295573 nc: 650820 enctime: 4.59
c File: j9037_7.smnaivebi1.wcnf
c timeout
c final solution cost: 110
c CPU time: 62.862906
s UNKNOWN

c File: j9037_7.smbi1.wcnf
c timeout
c final solution cost: 110
c CPU time: 60.668374
s UNKNOWN


rcpsp/heur_output_bi_constraints/Log=1/heurj90.txt
encoding rcpsp/j90.sm/j9037_8.sm nv: 893944 nc: 1985362 enctime: 20.75
encoding rcpsp/j90.sm/j9037_8.sm nv: 301962 nc: 668150 enctime: 4.19
c File: j9037_8.smnaivebi1.wcnf
c timeout
c final solution cost: 114
c CPU time: 63.310019
s UNKNOWN

c File: j9037_8.smbi1.wcnf
c timeout
c final solution cost: 109
c CPU time: 60.666385
s UNKNOWN


rcpsp/heur_output_bi_constraints/Log=1/heurj90.txt
encoding rcpsp/j90.sm/j9037_9.sm nv: 754929 nc: 1671750 enctime: 17.54
encoding rcpsp/j90.sm/j9037_9.sm nv: 309474 nc: 683370 enctime: 5.06
c File: j9037_9.smnaivebi1.wcnf
c timeout
c final solution cost: 151
c CPU time: 62.891013
s UNKNOWN

c File: j9037_9.smbi1.wcnf
c timeout
c final solution cost: 114
c CPU time: 60.734491
s UNKNOWN


rcpsp/heur_output_bi_constraints/Log=1/heurj90.txt
encoding rcpsp/j90.sm/j903_7.sm nv: 428230 nc: 968077 enctime: 9.79
encoding rcpsp/j90.sm/j903_7.sm nv: 60775 nc: 134917 enctime: 0.60
c File: j903_7.smnaivebi1.wcnf
c optimal
c final solution cost: 36
c CPU time: 8.012477
s OPTIMUM FOUND

c File: j903_7.smbi1.wcnf
c optimal
c final solution cost: 36
c CPU time: 0.220166
s OPTIMUM FOUND


rcpsp/heur_output_bi_constraints/Log=1/heurj90.txt
encoding rcpsp/j90.sm/j9038_10.sm nv: 1237021 nc: 2634319 enctime: 23.96
encoding rcpsp/j90.sm/j9038_10.sm nv: 237984 nc: 504061 enctime: 3.08
c File: j9038_10.smnaivebi1.wcnf
c optimal
c final solution cost: 76
c CPU time: 10.928054
s OPTIMUM FOUND

c File: j9038_10.smbi1.wcnf
c optimal
c final solution cost: 76
c CPU time: 1.860274
s OPTIMUM FOUND


rcpsp/heur_output_bi_constraints/Log=1/heurj90.txt
encoding rcpsp/j90.sm/j9038_1.sm nv: 1357056 nc: 2867802 enctime: 25.91
encoding rcpsp/j90.sm/j9038_1.sm nv: 254448 nc: 534835 enctime: 3.36
c File: j9038_1.smnaivebi1.wcnf
c optimal
c final solution cost: 60
c CPU time: 19.736240
s OPTIMUM FOUND

c File: j9038_1.smbi1.wcnf
c optimal
c final solution cost: 60
c CPU time: 5.874430
s OPTIMUM FOUND


rcpsp/heur_output_bi_constraints/Log=1/heurj90.txt
encoding rcpsp/j90.sm/j9038_2.sm nv: 1358970 nc: 2850299 enctime: 25.22
encoding rcpsp/j90.sm/j9038_2.sm nv: 256080 nc: 534609 enctime: 3.33
c File: j9038_2.smnaivebi1.wcnf
c optimal
c final solution cost: 71
c CPU time: 5.242787
s OPTIMUM FOUND

c File: j9038_2.smbi1.wcnf
c optimal
c final solution cost: 71
c CPU time: 0.682439
s OPTIMUM FOUND


rcpsp/heur_output_bi_constraints/Log=1/heurj90.txt
encoding rcpsp/j90.sm/j9038_3.sm nv: 1394540 nc: 2939667 enctime: 26.69
encoding rcpsp/j90.sm/j9038_3.sm nv: 290292 nc: 609339 enctime: 3.81
c File: j9038_3.smnaivebi1.wcnf
c timeout
c final solution cost: 290
c CPU time: 63.792977
s UNKNOWN

c File: j9038_3.smbi1.wcnf
c optimal
c final solution cost: 66
c CPU time: 5.455366
s OPTIMUM FOUND


rcpsp/heur_output_bi_constraints/Log=1/heurj90.txt
encoding rcpsp/j90.sm/j9038_4.sm nv: 1354197 nc: 2872573 enctime: 27.53
encoding rcpsp/j90.sm/j9038_4.sm nv: 272442 nc: 575008 enctime: 3.75
c File: j9038_4.smnaivebi1.wcnf
c optimal
c final solution cost: 68
c CPU time: 57.394881
s OPTIMUM FOUND

c File: j9038_4.smbi1.wcnf
c optimal
c final solution cost: 68
c CPU time: 0.787500
s OPTIMUM FOUND


rcpsp/heur_output_bi_constraints/Log=1/heurj90.txt
encoding rcpsp/j90.sm/j9038_5.sm nv: 1308918 nc: 2793282 enctime: 27.33
encoding rcpsp/j90.sm/j9038_5.sm nv: 242112 nc: 513735 enctime: 3.38
c File: j9038_5.smnaivebi1.wcnf
c timeout
c final solution cost: 68
c CPU time: 64.045293
s UNKNOWN

c File: j9038_5.smbi1.wcnf
c timeout
c final solution cost: 68
c CPU time: 60.418132
s UNKNOWN


rcpsp/heur_output_bi_constraints/Log=1/heurj90.txt
encoding rcpsp/j90.sm/j9038_6.sm nv: 1362843 nc: 2873371 enctime: 27.71
encoding rcpsp/j90.sm/j9038_6.sm nv: 281487 nc: 590767 enctime: 3.87
c File: j9038_6.smnaivebi1.wcnf
c optimal
c final solution cost: 66
c CPU time: 13.329599
s OPTIMUM FOUND

c File: j9038_6.smbi1.wcnf
c optimal
c final solution cost: 66
c CPU time: 4.173957
s OPTIMUM FOUND


rcpsp/heur_output_bi_constraints/Log=1/heurj90.txt
encoding rcpsp/j90.sm/j9038_7.sm nv: 1380954 nc: 2914810 enctime: 28.35
encoding rcpsp/j90.sm/j9038_7.sm nv: 268981 nc: 564950 enctime: 3.71
c File: j9038_7.smnaivebi1.wcnf
c optimal
c final solution cost: 65
c CPU time: 6.831476
s OPTIMUM FOUND

c File: j9038_7.smbi1.wcnf
c optimal
c final solution cost: 65
c CPU time: 1.148877
s OPTIMUM FOUND


rcpsp/heur_output_bi_constraints/Log=1/heurj90.txt
encoding rcpsp/j90.sm/j9038_8.sm nv: 1574720 nc: 3330207 enctime: 32.83
encoding rcpsp/j90.sm/j9038_8.sm nv: 322640 nc: 679266 enctime: 4.46
c File: j9038_8.smnaivebi1.wcnf
c optimal
c final solution cost: 71
c CPU time: 14.136028
s OPTIMUM FOUND

c File: j9038_8.smbi1.wcnf
c optimal
c final solution cost: 71
c CPU time: 4.327001
s OPTIMUM FOUND


rcpsp/heur_output_bi_constraints/Log=1/heurj90.txt
encoding rcpsp/j90.sm/j9038_9.sm nv: 1376331 nc: 2944726 enctime: 30.13
encoding rcpsp/j90.sm/j9038_9.sm nv: 276804 nc: 589087 enctime: 3.92
c File: j9038_9.smnaivebi1.wcnf
c timeout
c final solution cost: 71
c CPU time: 64.273200
s UNKNOWN

c File: j9038_9.smbi1.wcnf
c timeout
c final solution cost: 72
c CPU time: 60.515174
s UNKNOWN


rcpsp/heur_output_bi_constraints/Log=1/heurj90.txt
encoding rcpsp/j90.sm/j903_8.sm nv: 501486 nc: 1142223 enctime: 12.31
encoding rcpsp/j90.sm/j903_8.sm nv: 77539 nc: 173923 enctime: 1.23
c File: j903_8.smnaivebi1.wcnf
c optimal
c final solution cost: 53
c CPU time: 3.467763
s OPTIMUM FOUND

c File: j903_8.smbi1.wcnf
c optimal
c final solution cost: 53
c CPU time: 0.231252
s OPTIMUM FOUND


rcpsp/heur_output_bi_constraints/Log=1/heurj90.txt
encoding rcpsp/j90.sm/j9039_10.sm nv: 1652510 nc: 3463746 enctime: 32.83
encoding rcpsp/j90.sm/j9039_10.sm nv: 305425 nc: 637172 enctime: 3.18
c File: j9039_10.smnaivebi1.wcnf
c optimal
c final solution cost: 68
c CPU time: 56.417553
s OPTIMUM FOUND

c File: j9039_10.smbi1.wcnf
c optimal
c final solution cost: 68
c CPU time: 0.950423
s OPTIMUM FOUND


